% MIT License
%
% Copyright (c) 2021 Johan Ludde Wessén
%
% Permission is hereby granted, free of charge, to any person obtaining 
% a copy of this software and associated documentation files (the "Software"),
% to deal in the Software without restriction, including without limitation 
% the rights to use, copy, modify, merge, publish, distribute, sublicense, 
% and/or sell copies of the Software, and to permit persons to whom the 
% Software is furnished to do so, subject to the following conditions:
% 
% The above copyright notice and this permission notice shall be included 
% in all copies or substantial portions of the Software.
%
% THE SOFTWARE IS PROVIDED "AS IS", WITHOUT WARRANTY OF ANY KIND, 
% EXPRESS OR IMPLIED, INCLUDING BUT NOT LIMITED TO THE WARRANTIES OF
% MERCHANTABILITY, FITNESS FOR A PARTICULAR PURPOSE AND
% NONINFRINGEMENT. IN NO EVENT SHALL THE AUTHORS OR COPYRIGHT HOLDERS BE
% LIABLE FOR ANY CLAIM, DAMAGES OR OTHER LIABILITY, WHETHER IN AN ACTION
% OF CONTRACT, TORT OR OTHERWISE, ARISING FROM, OUT OF OR IN CONNECTION
% WITH THE SOFTWARE OR THE USE OR OTHER DEALINGS IN THE SOFTWARE.

%-----------------------------------------------------------------------------%
% Dual Arm Multi Capacity Multi Tool Scheduling / Routing
% Assembly Configuration
% Auto Generated by python script, authored by Johan Ludde Wessen 
%-----------------------------------------------------------------------------%


task_durations = [|28, 25, 27, 34, 31, 28, 22, 28, 29, 55, 47, 54, 42, 46, 51, 55, 59, 56,  8,  4,  6,  6,  7,  7,  6,  7
                  |24, 24, 24, 28, 34, 24, 23, 22, 31, 54, 49, 60, 48, 45, 45, 44, 62, 51,  8,  4,  6,  6,  7,  7,  6,  6
                  |];


TRAY_TASKS = 1..7;
CAMERA_TASKS = {  };
OUTPUT_TASKS = { 18 };


empty_gripper_tasks = 19..26;


gripper_pick_tasks_orders = [|1, 10, -1
|2, 11, -1
|3, 12, -1
|4, 13, -1
|5, 14, -1
|6, 15, -1
|7, 16, -1
|8, 17, -1
|9, 18, -1
|];

suction_pick_tasks_orders = [||];

fixture_task_orders = [|10, 19, 11, 20, 12, 21, 8, -1, -1, -1, -1, -1
|13, 22, 14, 23, 15, 24, 16, 25, 17, 26, 9, -1
|];

